85
0 73 49 4 84 39 70 56 51 17 
10 1 16 2 82 8 3 61 52 68 
34 55 83 21 65 13 69 36 9 64 
19 47 41 7 53 18 81 74 76 44 
23 62 79 50 80 67 43 78 6 42 
20 15 28 75 40 32 27 24 29 77 
35 12 54 45 11 59 46 5 22 48 
31 26 58 71 30 33 57 66 72 14 
37 60 25 63 38 
